n_machines = 5;
n_resources = 10;
n_jobs = 54;
horizon = 25561;
LB = 5112;
n_jobs_per_resource = [3, 8, 9, 1, 5, 9, 4, 8, 5, 2];
duration = [16, 218, 571, 459, 432, 831, 87, 429, 213, 720, 570, 919, 314, 664, 706, 83, 295, 179, 211, 44, 980, 329, 893, 530, 972, 654, 421, 690, 585, 126, 714, 661, 202, 302, 175, 927, 510, 670, 736, 87, 523, 626, 354, 823, 328, 416, 684, 737, 571, 523, 140, 393, 64, 254]